words_hard_train/3619.qaiger
aag 41 15 0 1 26
2
4
8
10
14
18
20
24
32
38
42
48
52
60
64
82
6 3 4
12 8 10
16 12 14
22 18 20
26 22 24
28 16 26
30 7 28
34 32 5
36 31 35
40 38 21
44 42 11
46 41 45
50 48 25
54 52 9
56 51 55
58 46 56
62 60 19
66 64 15
68 63 67
70 58 68
72 36 71
74 28 5
76 33 3
78 76 71
80 74 79
82 73 81
i0 1 x1[0]
i1 1 x1[7]
i2 1 x1[1]
i3 1 x1[4]
i4 1 x1[5]
i5 1 x1[3]
i6 1 x1[6]
i7 1 x1[2]
i8 2 y1[7]
i9 2 y1[6]
i10 2 y1[4]
i11 2 y1[2]
i12 2 y1[1]
i13 2 y1[3]
i14 2 y1[5]
o0 bv[0]
c
simplified
  <
    or
      2 y1
      1 x1
    subtract
      1 x1
      invert
        1
