words_hard_train/3619.qaiger.qdimacs
p cnf 41 79
a 1 2 4 5 7 9 10 12 0
e 3 6 8 11 13 14 15 16 17 18 19 20 21 22 23 24 25 26 27 28 29 30 31 32 33 34 35 36 37 38 39 40 41 0
1 -2 3 0
-1 -3 0
2 -3 0
-4 -5 6 0
4 -6 0
5 -6 0
-6 -7 8 0
6 -8 0
7 -8 0
-9 -10 11 0
9 -11 0
10 -11 0
-11 -12 13 0
11 -13 0
12 -13 0
-8 -13 14 0
8 -14 0
13 -14 0
3 -14 15 0
-3 -15 0
14 -15 0
-16 2 17 0
16 -17 0
-2 -17 0
15 17 18 0
-15 -18 0
-17 -18 0
-19 10 20 0
19 -20 0
-10 -20 0
-21 5 22 0
21 -22 0
-5 -22 0
20 22 23 0
-20 -23 0
-22 -23 0
-24 12 25 0
24 -25 0
-12 -25 0
-26 4 27 0
26 -27 0
-4 -27 0
25 27 28 0
-25 -28 0
-27 -28 0
-23 -28 29 0
23 -29 0
28 -29 0
-30 9 31 0
30 -31 0
-9 -31 0
-32 7 33 0
32 -33 0
-7 -33 0
31 33 34 0
-31 -34 0
-33 -34 0
-29 -34 35 0
29 -35 0
34 -35 0
-18 35 36 0
18 -36 0
-35 -36 0
-14 2 37 0
14 -37 0
-2 -37 0
16 1 38 0
-16 -38 0
-1 -38 0
-38 35 39 0
38 -39 0
-35 -39 0
-37 39 40 0
37 -40 0
-39 -40 0
36 40 41 0
-36 -41 0
-40 -41 0
41 0
